245,89
782,93
542,-21
468,298
387,257
769,285
622,397
633,441
663,463
681,466
699,463
635,548
464,833
406,681
552,805
635,702
762,566
871,780
926,887
1041,766
1184,485
972,617
858,434
296,467
342,652
300,787
1137,258
838,-79
533,-50
